39 46
11 7
7 18
22 28
9 44
9 7
41 27
36 41
9 38
41 28
37 18
23 12
43 24
0 13
32 24
3 47
12 36
36 24
45 29
10 1
30 47
46 23
17 10
7 18
26 21
9 21
3 31
18 17
24 39
13 35
8 32
9 45
13 19
17 20
7 43
19 17
20 35
37 30
8 20
32 31
26 39
34 15
31 40
27 19
7 49
31 9
44 17
35 22
45 11
43 10
43 37
12 40
48 22
13 49
19 48
48 25
20 36
15 22
44 3
27 13
38 17
24 45
27 32
13 1
47 40
32 8
16 16
26 49
33 32
23 1
20 45
10 32
27 31
32 48
36 17
20 30
47 11
7 13
35 29
6 15
45 1
34 8
5 41
14 28
34 13
18 11
28 16
17 48
47 42
34 26
49 29
25 33
41 44
28 30
28 13
35 23
41 42
45 30
9 39
45 35
